NAME: tsp20-13
TYPE: TSP
DIMENSION: 20
EDGE_WEIGHT_TYPE: EUC_2D
NODE_COORD_SECTION
0 76 28
1 77 81
2 14 72
3 14 18
4 48 93
5 37 56
6 84 78
7 80 11
8 80 5
9 12 76
10 99 70
11 12 65
12 4 16
13 2 90
14 64 91
15 37 85
16 27 42
17 28 71
18 76 79
19 13 18
EOF